
  32   50
  15   16    8   12   13   12    7   14    0    9   10   11    4   11   13   23    5    6   11    8   11   14   15    9   12   12    8   16   13   10    7   10    0    0    0    0    0    0    0    0    0    0    0    0    0    0    0    0    0    0

   0   0   0   0   0   0   0   0   0   0   0   0   0   0   0   0   0   0   0   0   0   0   0   0   0   0   0   0   0   0   0   0   0   0   0   0   0   0   0   0   0   0   0   0   0   0   0   0   0   0   0  12 2 3 4 5 7 9 10 11 12 14 21 31 
   5   0   0   0   0   0   0   0   0   0   0   0   0   0   0   5   0   0   5   0   0   0   0   0   0   0   0   0   0   0   0   0   0   0   0   0   0   0   0   0   0   0   0   0   0   0   0   0   0   0   0   8 30 29 23 22 20 17 16 15 
   8   0   0   0   0   1   0   4   0   0   0   0   0   4   0   3   0   0   0   0   0   0   0   0   0   0   0   0   0   0   0   0   8   0   0   0   0   0   0   0   0   0   0   0   0   0   0   0   0   0   0   3 18 13 6 
   5  10   0   0   0   0   0   0   0   0   3   0   9   0   0   0  10   0   0   0   0   0   0   0   0   0   0   0   0   3   0   0   0   0   0   0   0   0   0   0   0   0   0   0   0   0   0   0   0   0   0   3 30 23 8 
   7   0   2   0   0   0   0   0  10   0   0   5   0   0   0   0   0   4   0   0   0   0   0   0   0   0   6   0   0   0   0   0   0   0   0   0   0   0   0   0   0   0   0   0   0   0   0   0   0   0   0   6 30 29 22 19 17 15 
   5   0   0   0   0   0   0   0   0   0   9   0   4   0   0   0   0   0   0   0   0   0   1   4   3   0   0   0   0   0   0   0   0   0   0   0   0   0   0   0   0   0   0   0   0   0   0   0   0   0   0   7 30 29 26 24 22 17 15 
   2   8   0   6   0   0   0   0   0   0   0   0   0   0   0   0   0   0   0   6   0   0   4   0   0   0   0   0   0   0   0   0   0   0   0   0   0   0   0   0   0   0   0   0   0   0   0   0   0   0   0   5 30 29 22 16 15 
  10   0   0   0   0   0   0   0   0   0   0   0   0   0   0   0   0   0   0  10   0   1   6   0   0   0   1   8   0   0   0   0   0   0   0   0   0   0   0   0   0   0   0   0   0   0   0   0   0   0   0   4 29 22 16 15 
   4   0   3   0   0   8   0   0   0   0   0   0   0   0   0   0   4   0   0   0   0   0   0   0   0   0   0   0   0   0   0   2   0   0   0   0   0   0   0   0   0   0   0   0   0   0   0   0   0   0   0   6 29 27 26 25 23 18 
   4   0   5   0   3   0   0   0   0   0   0   7   0   0   0   0   7   0   0   0   0   0   0   0   0   1   4   0   0   0   0   0   0   0   0   0   0   0   0   0   0   0   0   0   0   0   0   0   0   0   0   5 29 28 25 22 16 
   3   0   0   0   0   0   0   0   0   0   0   0   0   0   0   5   0   0   0   0   0   0   0   0   0   4   0   0   0   0   0   0   0   0   0   0   0   0   0   0   0   0   0   0   0   0   0   0   0   0   0   5 30 28 27 25 16 
   1   0   0   0   0   4   0   0   7   0   0   0   0   0   0   4  10   2   0   0   0   8   0   0   0   0   0   0   0   0   0   5   0   0   0   0   0   0   0   0   0   0   0   0   0   0   0   0   0   0   0   3 30 29 15 
   5   0   0   0   0   0   0   0   0   0   0   0   0   0   6   0   0   0   0   0   0   0   0   0   4   0   1   0   0   0   0   0   0   0   0   0   0   0   0   0   0   0   0   0   0   0   0   0   0   0   0   4 27 26 25 24 
   1   0   0   0   0   0  10   5   0   0   0   0   2   0   0   0   0   0   0   0   0   0   0   0   0   0   4   0   0   9   0   0   2   0   0   0   0   0   0   0   0   0   0   0   0   0   0   0   0   0   0   4 29 26 25 24 
   8   0   6   0   0   0   0   0   0   0   0   0   0   0   0   0   4   0   0   0   0   0   0   0   0   0   0   0   0   0   0   1   0   0   0   0   0   0   0   0   0   0   0   0   0   0   0   0   0   0   0   2 28 25 
   8   0   0   0  10   0   0   0   0   0   0   0   0   0   0   0   0   0   0   0   1   0   7   0   0   0   0   0   0   0   0   0   0   0   0   0   0   0   0   0   0   0   0   0   0   0   0   0   0   0   0   2 26 24 
   7   0   1   0   0   0   0   0   0   0   0   0   0   0   0   0   0   0   0   0   0   0   0   4   0   0   0   0   0   4   0   0   0   0   0   0   0   0   0   0   0   0   0   0   0   0   0   0   0   0   0   2 28 27 
   7   0   0   0   0   0   0   0   0   0   0   0   9   1   0   0   0   0   6   0   8   0   0   0   0   0   0   0   7   0   0   0   0   0   0   0   0   0   0   0   0   0   0   0   0   0   0   0   0   0   0   2 30 24 
  10   0   0   0   0   0   0   0   0   0   0   0   0   0   0   0   0   0   0   0   0   0   8   0   5   9   0   0   9   0  10   0   0   0   0   0   0   0   0   0   0   0   0   0   0   0   0   0   0   0   0   2 26 24 
   5   0   0   0   0   0   0   0   0   0   0   0   0   0   0   0   3   0   0   0   0   0   0   1   0   0   0   0   4   0   0   0   4   0   0   0   0   0   0   0   0   0   0   0   0   0   0   0   0   0   0   2 25 24 
   3   0  10   0   0   4   0   0   0   0   0   0   0   0   0   0   0   0   0   0   0   0   0   9   0   9   0   0   0   0   0   0   0   0   0   0   0   0   0   0   0   0   0   0   0   0   0   0   0   0   0   2 28 25 
   8   0   0   0   0   1   0   0   0   0   0   0   0   0   0   6   8   0   0   0   0   0   0   0   0   0   0   0   0   0   0   0   2   0   0   0   0   0   0   0   0   0   0   0   0   0   0   0   0   0   0   1 27 
   7   0   0   0   0   0   0   0   0   0   0   0   0   0   8   0   0   0   0   2   0   0   0   5   0   0   0   0   0   0   0   7   0   0   0   0   0   0   0   0   0   0   0   0   0   0   0   0   0   0   0   1 24 
   3   6   3   0   0   0   0   0   0   0   1   5   0   0   0   0   0   0   0   0   0   0   0   0   0   8   0   0   0   0   0   0   0   0   0   0   0   0   0   0   0   0   0   0   0   0   0   0   0   0   0   1 32
   7   0   0   8   0   0   0   0   0   0   0   0   0   0   0   0   0   0   3   0   0   0   0   0   0   7   0   0   0   8   0   0   0   0   0   0   0   0   0   0   0   0   0   0   0   0   0   0   0   0   0   1 32
   2   0   7   0   0   0   0   0   0   0   0   0   3   0   0   0   0   0   0   9   0   7   0   0   0   0   0   0   0   8   0   0   0   0   0   0   0   0   0   0   0   0   0   0   0   0   0   0   0   0   0   1 32
   1   7   7   0   0   0   0   0   0   0   0   0   0   0   0   0   0   0   0   0   0   0   0   0   0   0  10   0   0   0   0   0   1   0   0   0   0   0   0   0   0   0   0   0   0   0   0   0   0   0   0   1 32
  10   0   0   0   0   5   0   0   4   0   0   0   0   0   0   0   0   0   0   0   1   0   0   0   0   0   0   0   0   0   0   0   0   0   0   0   0   0   0   0   0   0   0   0   0   0   0   0   0   0   0   1 32
   7   0   0   0   0   0   0   0   0   0   0   0   0   0   0   0   0   0   0   0   0   0   3   0   0   0   0   0   0   0   0   3   0   0   0   0   0   0   0   0   0   0   0   0   0   0   0   0   0   0   0   1 32
   2   0   0   0   4   0   0   6   6   0   0   4   0   0   0   0   0   0   0   7   0   0   0   0   0   4   0   0   0   0   0   0   0   0   0   0   0   0   0   0   0   0   0   0   0   0   0   0   0   0   0   1 32
   3   0   0   0   0   0   4   0   0   0   0   0   0   0   0   0   0   0   0   0   0   5   0  10   0   0   0   0   0   0  10   0   0   0   0   0   0   0   0   0   0   0   0   0   0   0   0   0   0   0   0   1 32
   0   0   0   0   0   0   0   0   0   0   0   0   0   0   0   0   0   0   0   0   0   0   0   0   0   0   0   0   0   0   0   0   0   0   0   0   0   0   0   0   0   0   0   0   0   0   0   0   0   0   0   0 
